# Data File - Annamalai Gokkul Natarajan
data;
set points := A B C D ;

set LinksFormed := (A,B) (B,C) (C,D)
                   (B,A) (C,B) (D,C) ;

param Distance   := [*,*]  A B  123
                           B C   64
                           C D   86 ;

param LastValue := 25 ;

param Number := 20 ;


set Timing :=

   (A,*,B,*)     1  2     2 3      3 4     4  5     
                 5  6     6 7      7 8     8  9     
                 9 10    10 11    11 12    12 13    
                 13 14   14 15    15 16    16 17    
                 17 18   18 19    19 20    20 21    
                 21 22   22 23    23 24    24 25
             

   (B,*,A,*)     1  2     2 3      3 4     4  5     
                 5  6     6 7      7 8     8  9     
                 9 10    10 11    11 12    12 13    
                 13 14   14 15    15 16    16 17    
                 17 18   18 19    19 20    20 21    
                 21 22   22 23    23 24    24 25

   (B,*,C,*)     1  2     2 3      3 4     4  5     
                 5  6     6 7      7 8     8  9     
                 9 10    10 11    11 12    12 13    
                 13 14   14 15    15 16    16 17    
                 17 18   18 19    19 20    20 21    
                 21 22   22 23    23 24    24 25

   (C,*,B,*)     1  2     2 3      3 4     4  5     
                 5  6     6 7      7 8     8  9     
                 9 10    10 11    11 12    12 13    
                 13 14   14 15    15 16    16 17    
                 17 18   18 19    19 20    20 21    
                 21 22   22 23    23 24    24 25

   (C,*,D,*)     1  2     2 3      3 4     4  5     
                 5  6     6 7      7 8     8  9     
                 9 10    10 11    11 12    12 13    
                 13 14   14 15    15 16    16 17    
                 17 18   18 19    19 20    20 21    
                 21 22   22 23    23 24    24 25

   (D,*,C,*)     1  2     2 3      3 4     4  5     
                 5  6     6 7      7 8     8  9     
                 9 10    10 11    11 12    12 13    
                 13 14   14 15    15 16    16 17    
                 17 18   18 19    19 20    20 21    
                 21 22   22 23    23 24    24 25    ;


param demand :=

 [A,*,B,*]     1  2    .01      2 3    .01       3  4    .09      
               4  5   1.59      5 6    1.69      6  7   5.19      
               7  8   8.55      8 9    9.29      9 10   11.00     
              10 11   5.80     11 12   3.40     12 13   4.88     
              13 14   2.92     14 15   4.37     15 16   2.80     
              16 17   4.23     17 18   12.88    18 19   9.33     
              19 20   8.11     20 21   6.64     21 22   8.44     
              22 23   6.95     23 24   5.73     24 25   3.22
              

 [B,*,A,*]     1  2    .01      2 3    .01       3  4    .13      
               4  5   1.57      5 6    1.62      6  7   5.14      
               7  8   6.55      8 9    7.29      9 10   9.00     
              10 11   12.80    11 12   9.40     12 13   5.88     
              13 14   2.91     14 15   4.35     15 16   3.80     
              16 17   4.23     17 18   10.34    18 19   12.33     
              19 20   7.11     20 21   7.64     21 22   6.44     
              22 23   5.95     23 24   3.73     24 25   1.22

 [B,*,C,*]     1  2    .07      2 3    .03       3  4    .19      
               4  5   1.42      5 6    1.23      6  7   5.22      
               7  8   8.35      8 9    8.29      9 10   10.00     
              10 11   11.80     11 12  5.40     12 13   4.88     
              13 14   2.92     14 15   4.37     15 16   2.80     
              16 17   5.23     17 18   11.88    18 19   6.33     
              19 20   8.51     20 21   3.34     21 22   8.24     
              22 23   6.55     23 24   5.23     24 25   2.22

 [C,*,B,*]     1  2    .01      2 3    .01       3  4    .13      
               4  5   1.52      5 6    1.32      6  7   5.84      
               7  8   6.15      8 9    6.29      9 10   8.00     
              10 11   11.80    11 12   10.40     12 13  2.88     
              13 14   3.91     14 15   2.35     15 16   1.80     
              16 17   3.23     17 18   8.34    18 19    4.33     
              19 20   5.11     20 21   3.64     21 22   5.44     
              22 23   5.75     23 24   3.23     24 25   1.24

 [C,*,D,*]     1  2    .04      2 3    .02       3  4    .24      
               4  5   1.25      5 6    1.43      6  7   4.22      
               7  8   5.35      8 9    6.29      9 10   8.00     
              10 11   10.80     11 12  5.20     12 13   4.58     
              13 14   1.92     14 15   5.37     15 16   4.80     
              16 17   4.33     17 18   10.88    18 19   5.33     
              19 20   6.51     20 21   4.34     21 22   4.24     
              22 23   4.55     23 24   3.43     24 25   3.22

 [D,*,C,*]     1  2    .05      2 3    .03       3  4    .13      
               4  5   1.52      5 6    1.32      6  7   5.84      
               7  8   6.15      8 9    6.29      9 10   8.00     
              10 11   11.80    11 12   10.40     12 13  2.88     
              13 14   3.91     14 15   2.35     15 16   1.80     
              16 17   3.23     17 18   8.34    18 19    4.33     
              19 20   5.11     20 21   3.64     21 22   5.44     
              22 23   5.75     23 24   3.23     24 25   1.24    ;
